
Gurobi 6.5.2 (linux64) logging started Wed Aug 31 10:35:28 2016

Optimize a model with 101 rows, 663 columns and 1609 nonzeros
Coefficient statistics:
  Matrix range    [1e+00, 2e+00]
  Objective range [3e+00, 1e+02]
  Bounds range    [1e+00, 1e+00]
  RHS range       [1e+00, 1e+00]
Found heuristic solution: objective 2052
Presolve removed 33 rows and 3 columns
Presolve time: 0.00s
Presolved: 68 rows, 660 columns, 1367 nonzeros
Variable types: 0 continuous, 660 integer (660 binary)

Root relaxation: objective 7.660000e+02, 65 iterations, 0.00 seconds

    Nodes    |    Current Node    |     Objective Bounds      |     Work
 Expl Unexpl |  Obj  Depth IntInf | Incumbent    BestBd   Gap | It/Node Time

     0     0  766.00000    0    4 2052.00000  766.00000  62.7%     -    0s
H    0     0                     941.0000000  766.00000  18.6%     -    0s
H    0     0                     796.0000000  766.00000  3.77%     -    0s
H    0     0                     789.0000000  766.00000  2.92%     -    0s
H    0     0                     788.0000000  766.00000  2.79%     -    0s
     0     0  785.00000    0    2  788.00000  785.00000  0.38%     -    0s
     0     0  785.00000    0    6  788.00000  785.00000  0.38%     -    0s
     0     0  785.00000    0    6  788.00000  785.00000  0.38%     -    0s
H    0     0                     787.0000000  785.00000  0.25%     -    0s

Cutting planes:
  Gomory: 5
  Cover: 5
  Zero half: 2

Explored 0 nodes (169 simplex iterations) in 0.02 seconds
Thread count was 8 (of 8 available processors)

Optimal solution found (tolerance 1.00e-04)
Best objective 7.870000000000e+02, best bound 7.870000000000e+02, gap 0.0%
